p cnf 25 100
16 1 2 0
24 -1 -3 0
-1 -4 -5 0
8 -1 6 0
-1 23 7 0
-1 -13 -9 0
-1 10 -21 0
-1 -11 -22 0
1 -12 -17 0
1 19 14 0
1 20 15 0
1 18 25 0
-2 3 -22 0
-2 4 -20 0
-2 12 -5 0
-2 19 6 0
2 -18 7 0
8 2 10 0
9 -2 -17 0
25 2 -11 0
-2 13 15 0
-24 2 14 0
-2 -21 23 0
3 -4 14 0
16 -3 5 0
-10 -3 6 0
-17 -3 7 0
-8 3 -23 0
-19 -9 3 0
11 -18 -3 0
-3 -12 20 0
-21 -3 -13 0
-25 3 15 0
-4 12 -6 0
-11 -4 7 0
8 -9 -4 0
-10 -18 -4 0
25 4 -13 0
-17 -4 -15 0
16 -19 -4 0
4 21 -22 0
-24 -4 -23 0
-25 5 -6 0
10 -5 -7 0
-8 -18 5 0
-9 -5 22 0
11 -5 -15 0
-13 5 -14 0
17 -20 -5 0
-19 -5 -23 0
24 21 5 0
13 -6 -7 0
-9 -6 14 0
-17 -11 -6 0
-22 6 15 0
-16 6 23 0
18 -21 -6 0
24 20 6 0
8 -22 -7 0
-9 12 7 0
-15 14 -7 0
-16 21 7 0
-19 20 -7 0
-24 25 -7 0
-8 24 11 0
-8 25 -12 0
8 17 13 0
-8 16 14 0
-8 -19 -15 0
8 20 21 0
9 10 -23 0
-9 11 -21 0
-24 -9 -15 0
-16 -9 -25 0
9 -18 20 0
-10 11 14 0
10 12 22 0
-10 20 13 0
-16 -10 -15 0
24 -17 -10 0
25 10 -19 0
-11 12 -23 0
-19 -11 13 0
16 11 -20 0
-16 -12 -13 0
-18 12 14 0
-12 21 -15 0
-24 19 -12 0
24 -18 -13 0
-13 -22 23 0
17 14 -22 0
20 14 23 0
25 21 14 0
-18 -23 -15 0
16 17 18 0
-16 24 -22 0
-17 19 -21 0
-17 -25 -23 0
18 -19 -22 0
25 -20 22 0
